p cnf 1608 2316
15 29 43 57 71 85 99 113 127 141 155 169  0
16 30 44 58 72 86 100 114 128 142 156 170  0
17 31 45 59 73 87 101 115 129 143 157 171  0
18 32 46 60 74 88 102 116 130 144 158 172  0
19 33 47 61 75 89 103 117 131 145 159 173  0
20 34 48 62 76 90 104 118 132 146 160 174  0
21 35 49 63 77 91 105 119 133 147 161 175  0
22 36 50 64 78 92 106 120 134 148 162 176  0
23 37 51 65 79 93 107 121 135 149 163 177  0
24 38 52 66 80 94 108 122 136 150 164 178  0
25 39 53 67 81 95 109 123 137 151 165 179  0
26 40 54 68 82 96 110 124 138 152 166 180  0
-15 -29  0
-15 -43  0
-15 -57  0
-15 -71  0
-15 -85  0
-15 -99  0
-15 -113  0
-15 -127  0
-15 -141  0
-15 -155  0
-15 -169  0
-29 -43  0
-29 -57  0
-29 -71  0
-29 -85  0
-29 -99  0
-29 -113  0
-29 -127  0
-29 -141  0
-29 -155  0
-29 -169  0
-43 -57  0
-43 -71  0
-43 -85  0
-43 -99  0
-43 -113  0
-43 -127  0
-43 -141  0
-43 -155  0
-43 -169  0
-57 -71  0
-57 -85  0
-57 -99  0
-57 -113  0
-57 -127  0
-57 -141  0
-57 -155  0
-57 -169  0
-71 -85  0
-71 -99  0
-71 -113  0
-71 -127  0
-71 -141  0
-71 -155  0
-71 -169  0
-85 -99  0
-85 -113  0
-85 -127  0
-85 -141  0
-85 -155  0
-85 -169  0
-99 -113  0
-99 -127  0
-99 -141  0
-99 -155  0
-99 -169  0
-113 -127  0
-113 -141  0
-113 -155  0
-113 -169  0
-127 -141  0
-127 -155  0
-127 -169  0
-141 -155  0
-141 -169  0
-155 -169  0
-16 -30  0
-16 -44  0
-16 -58  0
-16 -72  0
-16 -86  0
-16 -100  0
-16 -114  0
-16 -128  0
-16 -142  0
-16 -156  0
-16 -170  0
-30 -44  0
-30 -58  0
-30 -72  0
-30 -86  0
-30 -100  0
-30 -114  0
-30 -128  0
-30 -142  0
-30 -156  0
-30 -170  0
-44 -58  0
-44 -72  0
-44 -86  0
-44 -100  0
-44 -114  0
-44 -128  0
-44 -142  0
-44 -156  0
-44 -170  0
-58 -72  0
-58 -86  0
-58 -100  0
-58 -114  0
-58 -128  0
-58 -142  0
-58 -156  0
-58 -170  0
-72 -86  0
-72 -100  0
-72 -114  0
-72 -128  0
-72 -142  0
-72 -156  0
-72 -170  0
-86 -100  0
-86 -114  0
-86 -128  0
-86 -142  0
-86 -156  0
-86 -170  0
-100 -114  0
-100 -128  0
-100 -142  0
-100 -156  0
-100 -170  0
-114 -128  0
-114 -142  0
-114 -156  0
-114 -170  0
-128 -142  0
-128 -156  0
-128 -170  0
-142 -156  0
-142 -170  0
-156 -170  0
-17 -31  0
-17 -45  0
-17 -59  0
-17 -73  0
-17 -87  0
-17 -101  0
-17 -115  0
-17 -129  0
-17 -143  0
-17 -157  0
-17 -171  0
-31 -45  0
-31 -59  0
-31 -73  0
-31 -87  0
-31 -101  0
-31 -115  0
-31 -129  0
-31 -143  0
-31 -157  0
-31 -171  0
-45 -59  0
-45 -73  0
-45 -87  0
-45 -101  0
-45 -115  0
-45 -129  0
-45 -143  0
-45 -157  0
-45 -171  0
-59 -73  0
-59 -87  0
-59 -101  0
-59 -115  0
-59 -129  0
-59 -143  0
-59 -157  0
-59 -171  0
-73 -87  0
-73 -101  0
-73 -115  0
-73 -129  0
-73 -143  0
-73 -157  0
-73 -171  0
-87 -101  0
-87 -115  0
-87 -129  0
-87 -143  0
-87 -157  0
-87 -171  0
-101 -115  0
-101 -129  0
-101 -143  0
-101 -157  0
-101 -171  0
-115 -129  0
-115 -143  0
-115 -157  0
-115 -171  0
-129 -143  0
-129 -157  0
-129 -171  0
-143 -157  0
-143 -171  0
-157 -171  0
-18 -32  0
-18 -46  0
-18 -60  0
-18 -74  0
-18 -88  0
-18 -102  0
-18 -116  0
-18 -130  0
-18 -144  0
-18 -158  0
-18 -172  0
-32 -46  0
-32 -60  0
-32 -74  0
-32 -88  0
-32 -102  0
-32 -116  0
-32 -130  0
-32 -144  0
-32 -158  0
-32 -172  0
-46 -60  0
-46 -74  0
-46 -88  0
-46 -102  0
-46 -116  0
-46 -130  0
-46 -144  0
-46 -158  0
-46 -172  0
-60 -74  0
-60 -88  0
-60 -102  0
-60 -116  0
-60 -130  0
-60 -144  0
-60 -158  0
-60 -172  0
-74 -88  0
-74 -102  0
-74 -116  0
-74 -130  0
-74 -144  0
-74 -158  0
-74 -172  0
-88 -102  0
-88 -116  0
-88 -130  0
-88 -144  0
-88 -158  0
-88 -172  0
-102 -116  0
-102 -130  0
-102 -144  0
-102 -158  0
-102 -172  0
-116 -130  0
-116 -144  0
-116 -158  0
-116 -172  0
-130 -144  0
-130 -158  0
-130 -172  0
-144 -158  0
-144 -172  0
-158 -172  0
-19 -33  0
-19 -47  0
-19 -61  0
-19 -75  0
-19 -89  0
-19 -103  0
-19 -117  0
-19 -131  0
-19 -145  0
-19 -159  0
-19 -173  0
-33 -47  0
-33 -61  0
-33 -75  0
-33 -89  0
-33 -103  0
-33 -117  0
-33 -131  0
-33 -145  0
-33 -159  0
-33 -173  0
-47 -61  0
-47 -75  0
-47 -89  0
-47 -103  0
-47 -117  0
-47 -131  0
-47 -145  0
-47 -159  0
-47 -173  0
-61 -75  0
-61 -89  0
-61 -103  0
-61 -117  0
-61 -131  0
-61 -145  0
-61 -159  0
-61 -173  0
-75 -89  0
-75 -103  0
-75 -117  0
-75 -131  0
-75 -145  0
-75 -159  0
-75 -173  0
-89 -103  0
-89 -117  0
-89 -131  0
-89 -145  0
-89 -159  0
-89 -173  0
-103 -117  0
-103 -131  0
-103 -145  0
-103 -159  0
-103 -173  0
-117 -131  0
-117 -145  0
-117 -159  0
-117 -173  0
-131 -145  0
-131 -159  0
-131 -173  0
-145 -159  0
-145 -173  0
-159 -173  0
-20 -34  0
-20 -48  0
-20 -62  0
-20 -76  0
-20 -90  0
-20 -104  0
-20 -118  0
-20 -132  0
-20 -146  0
-20 -160  0
-20 -174  0
-34 -48  0
-34 -62  0
-34 -76  0
-34 -90  0
-34 -104  0
-34 -118  0
-34 -132  0
-34 -146  0
-34 -160  0
-34 -174  0
-48 -62  0
-48 -76  0
-48 -90  0
-48 -104  0
-48 -118  0
-48 -132  0
-48 -146  0
-48 -160  0
-48 -174  0
-62 -76  0
-62 -90  0
-62 -104  0
-62 -118  0
-62 -132  0
-62 -146  0
-62 -160  0
-62 -174  0
-76 -90  0
-76 -104  0
-76 -118  0
-76 -132  0
-76 -146  0
-76 -160  0
-76 -174  0
-90 -104  0
-90 -118  0
-90 -132  0
-90 -146  0
-90 -160  0
-90 -174  0
-104 -118  0
-104 -132  0
-104 -146  0
-104 -160  0
-104 -174  0
-118 -132  0
-118 -146  0
-118 -160  0
-118 -174  0
-132 -146  0
-132 -160  0
-132 -174  0
-146 -160  0
-146 -174  0
-160 -174  0
-21 -35  0
-21 -49  0
-21 -63  0
-21 -77  0
-21 -91  0
-21 -105  0
-21 -119  0
-21 -133  0
-21 -147  0
-21 -161  0
-21 -175  0
-35 -49  0
-35 -63  0
-35 -77  0
-35 -91  0
-35 -105  0
-35 -119  0
-35 -133  0
-35 -147  0
-35 -161  0
-35 -175  0
-49 -63  0
-49 -77  0
-49 -91  0
-49 -105  0
-49 -119  0
-49 -133  0
-49 -147  0
-49 -161  0
-49 -175  0
-63 -77  0
-63 -91  0
-63 -105  0
-63 -119  0
-63 -133  0
-63 -147  0
-63 -161  0
-63 -175  0
-77 -91  0
-77 -105  0
-77 -119  0
-77 -133  0
-77 -147  0
-77 -161  0
-77 -175  0
-91 -105  0
-91 -119  0
-91 -133  0
-91 -147  0
-91 -161  0
-91 -175  0
-105 -119  0
-105 -133  0
-105 -147  0
-105 -161  0
-105 -175  0
-119 -133  0
-119 -147  0
-119 -161  0
-119 -175  0
-133 -147  0
-133 -161  0
-133 -175  0
-147 -161  0
-147 -175  0
-161 -175  0
-22 -36  0
-22 -50  0
-22 -64  0
-22 -78  0
-22 -92  0
-22 -106  0
-22 -120  0
-22 -134  0
-22 -148  0
-22 -162  0
-22 -176  0
-36 -50  0
-36 -64  0
-36 -78  0
-36 -92  0
-36 -106  0
-36 -120  0
-36 -134  0
-36 -148  0
-36 -162  0
-36 -176  0
-50 -64  0
-50 -78  0
-50 -92  0
-50 -106  0
-50 -120  0
-50 -134  0
-50 -148  0
-50 -162  0
-50 -176  0
-64 -78  0
-64 -92  0
-64 -106  0
-64 -120  0
-64 -134  0
-64 -148  0
-64 -162  0
-64 -176  0
-78 -92  0
-78 -106  0
-78 -120  0
-78 -134  0
-78 -148  0
-78 -162  0
-78 -176  0
-92 -106  0
-92 -120  0
-92 -134  0
-92 -148  0
-92 -162  0
-92 -176  0
-106 -120  0
-106 -134  0
-106 -148  0
-106 -162  0
-106 -176  0
-120 -134  0
-120 -148  0
-120 -162  0
-120 -176  0
-134 -148  0
-134 -162  0
-134 -176  0
-148 -162  0
-148 -176  0
-162 -176  0
-23 -37  0
-23 -51  0
-23 -65  0
-23 -79  0
-23 -93  0
-23 -107  0
-23 -121  0
-23 -135  0
-23 -149  0
-23 -163  0
-23 -177  0
-37 -51  0
-37 -65  0
-37 -79  0
-37 -93  0
-37 -107  0
-37 -121  0
-37 -135  0
-37 -149  0
-37 -163  0
-37 -177  0
-51 -65  0
-51 -79  0
-51 -93  0
-51 -107  0
-51 -121  0
-51 -135  0
-51 -149  0
-51 -163  0
-51 -177  0
-65 -79  0
-65 -93  0
-65 -107  0
-65 -121  0
-65 -135  0
-65 -149  0
-65 -163  0
-65 -177  0
-79 -93  0
-79 -107  0
-79 -121  0
-79 -135  0
-79 -149  0
-79 -163  0
-79 -177  0
-93 -107  0
-93 -121  0
-93 -135  0
-93 -149  0
-93 -163  0
-93 -177  0
-107 -121  0
-107 -135  0
-107 -149  0
-107 -163  0
-107 -177  0
-121 -135  0
-121 -149  0
-121 -163  0
-121 -177  0
-135 -149  0
-135 -163  0
-135 -177  0
-149 -163  0
-149 -177  0
-163 -177  0
-24 -38  0
-24 -52  0
-24 -66  0
-24 -80  0
-24 -94  0
-24 -108  0
-24 -122  0
-24 -136  0
-24 -150  0
-24 -164  0
-24 -178  0
-38 -52  0
-38 -66  0
-38 -80  0
-38 -94  0
-38 -108  0
-38 -122  0
-38 -136  0
-38 -150  0
-38 -164  0
-38 -178  0
-52 -66  0
-52 -80  0
-52 -94  0
-52 -108  0
-52 -122  0
-52 -136  0
-52 -150  0
-52 -164  0
-52 -178  0
-66 -80  0
-66 -94  0
-66 -108  0
-66 -122  0
-66 -136  0
-66 -150  0
-66 -164  0
-66 -178  0
-80 -94  0
-80 -108  0
-80 -122  0
-80 -136  0
-80 -150  0
-80 -164  0
-80 -178  0
-94 -108  0
-94 -122  0
-94 -136  0
-94 -150  0
-94 -164  0
-94 -178  0
-108 -122  0
-108 -136  0
-108 -150  0
-108 -164  0
-108 -178  0
-122 -136  0
-122 -150  0
-122 -164  0
-122 -178  0
-136 -150  0
-136 -164  0
-136 -178  0
-150 -164  0
-150 -178  0
-164 -178  0
-25 -39  0
-25 -53  0
-25 -67  0
-25 -81  0
-25 -95  0
-25 -109  0
-25 -123  0
-25 -137  0
-25 -151  0
-25 -165  0
-25 -179  0
-39 -53  0
-39 -67  0
-39 -81  0
-39 -95  0
-39 -109  0
-39 -123  0
-39 -137  0
-39 -151  0
-39 -165  0
-39 -179  0
-53 -67  0
-53 -81  0
-53 -95  0
-53 -109  0
-53 -123  0
-53 -137  0
-53 -151  0
-53 -165  0
-53 -179  0
-67 -81  0
-67 -95  0
-67 -109  0
-67 -123  0
-67 -137  0
-67 -151  0
-67 -165  0
-67 -179  0
-81 -95  0
-81 -109  0
-81 -123  0
-81 -137  0
-81 -151  0
-81 -165  0
-81 -179  0
-95 -109  0
-95 -123  0
-95 -137  0
-95 -151  0
-95 -165  0
-95 -179  0
-109 -123  0
-109 -137  0
-109 -151  0
-109 -165  0
-109 -179  0
-123 -137  0
-123 -151  0
-123 -165  0
-123 -179  0
-137 -151  0
-137 -165  0
-137 -179  0
-151 -165  0
-151 -179  0
-165 -179  0
-26 -40  0
-26 -54  0
-26 -68  0
-26 -82  0
-26 -96  0
-26 -110  0
-26 -124  0
-26 -138  0
-26 -152  0
-26 -166  0
-26 -180  0
-40 -54  0
-40 -68  0
-40 -82  0
-40 -96  0
-40 -110  0
-40 -124  0
-40 -138  0
-40 -152  0
-40 -166  0
-40 -180  0
-54 -68  0
-54 -82  0
-54 -96  0
-54 -110  0
-54 -124  0
-54 -138  0
-54 -152  0
-54 -166  0
-54 -180  0
-68 -82  0
-68 -96  0
-68 -110  0
-68 -124  0
-68 -138  0
-68 -152  0
-68 -166  0
-68 -180  0
-82 -96  0
-82 -110  0
-82 -124  0
-82 -138  0
-82 -152  0
-82 -166  0
-82 -180  0
-96 -110  0
-96 -124  0
-96 -138  0
-96 -152  0
-96 -166  0
-96 -180  0
-110 -124  0
-110 -138  0
-110 -152  0
-110 -166  0
-110 -180  0
-124 -138  0
-124 -152  0
-124 -166  0
-124 -180  0
-138 -152  0
-138 -166  0
-138 -180  0
-152 -166  0
-152 -180  0
-166 -180  0
-15 -16  0
-15 -17  0
-15 -18  0
-15 -19  0
-15 -20  0
-15 -21  0
-15 -22  0
-15 -23  0
-15 -24  0
-15 -25  0
-15 -26  0
-16 -17  0
-16 -18  0
-16 -19  0
-16 -20  0
-16 -21  0
-16 -22  0
-16 -23  0
-16 -24  0
-16 -25  0
-16 -26  0
-17 -18  0
-17 -19  0
-17 -20  0
-17 -21  0
-17 -22  0
-17 -23  0
-17 -24  0
-17 -25  0
-17 -26  0
-18 -19  0
-18 -20  0
-18 -21  0
-18 -22  0
-18 -23  0
-18 -24  0
-18 -25  0
-18 -26  0
-19 -20  0
-19 -21  0
-19 -22  0
-19 -23  0
-19 -24  0
-19 -25  0
-19 -26  0
-20 -21  0
-20 -22  0
-20 -23  0
-20 -24  0
-20 -25  0
-20 -26  0
-21 -22  0
-21 -23  0
-21 -24  0
-21 -25  0
-21 -26  0
-22 -23  0
-22 -24  0
-22 -25  0
-22 -26  0
-23 -24  0
-23 -25  0
-23 -26  0
-24 -25  0
-24 -26  0
-25 -26  0
-29 -30  0
-29 -31  0
-29 -32  0
-29 -33  0
-29 -34  0
-29 -35  0
-29 -36  0
-29 -37  0
-29 -38  0
-29 -39  0
-29 -40  0
-30 -31  0
-30 -32  0
-30 -33  0
-30 -34  0
-30 -35  0
-30 -36  0
-30 -37  0
-30 -38  0
-30 -39  0
-30 -40  0
-31 -32  0
-31 -33  0
-31 -34  0
-31 -35  0
-31 -36  0
-31 -37  0
-31 -38  0
-31 -39  0
-31 -40  0
-32 -33  0
-32 -34  0
-32 -35  0
-32 -36  0
-32 -37  0
-32 -38  0
-32 -39  0
-32 -40  0
-33 -34  0
-33 -35  0
-33 -36  0
-33 -37  0
-33 -38  0
-33 -39  0
-33 -40  0
-34 -35  0
-34 -36  0
-34 -37  0
-34 -38  0
-34 -39  0
-34 -40  0
-35 -36  0
-35 -37  0
-35 -38  0
-35 -39  0
-35 -40  0
-36 -37  0
-36 -38  0
-36 -39  0
-36 -40  0
-37 -38  0
-37 -39  0
-37 -40  0
-38 -39  0
-38 -40  0
-39 -40  0
-43 -44  0
-43 -45  0
-43 -46  0
-43 -47  0
-43 -48  0
-43 -49  0
-43 -50  0
-43 -51  0
-43 -52  0
-43 -53  0
-43 -54  0
-44 -45  0
-44 -46  0
-44 -47  0
-44 -48  0
-44 -49  0
-44 -50  0
-44 -51  0
-44 -52  0
-44 -53  0
-44 -54  0
-45 -46  0
-45 -47  0
-45 -48  0
-45 -49  0
-45 -50  0
-45 -51  0
-45 -52  0
-45 -53  0
-45 -54  0
-46 -47  0
-46 -48  0
-46 -49  0
-46 -50  0
-46 -51  0
-46 -52  0
-46 -53  0
-46 -54  0
-47 -48  0
-47 -49  0
-47 -50  0
-47 -51  0
-47 -52  0
-47 -53  0
-47 -54  0
-48 -49  0
-48 -50  0
-48 -51  0
-48 -52  0
-48 -53  0
-48 -54  0
-49 -50  0
-49 -51  0
-49 -52  0
-49 -53  0
-49 -54  0
-50 -51  0
-50 -52  0
-50 -53  0
-50 -54  0
-51 -52  0
-51 -53  0
-51 -54  0
-52 -53  0
-52 -54  0
-53 -54  0
-57 -58  0
-57 -59  0
-57 -60  0
-57 -61  0
-57 -62  0
-57 -63  0
-57 -64  0
-57 -65  0
-57 -66  0
-57 -67  0
-57 -68  0
-58 -59  0
-58 -60  0
-58 -61  0
-58 -62  0
-58 -63  0
-58 -64  0
-58 -65  0
-58 -66  0
-58 -67  0
-58 -68  0
-59 -60  0
-59 -61  0
-59 -62  0
-59 -63  0
-59 -64  0
-59 -65  0
-59 -66  0
-59 -67  0
-59 -68  0
-60 -61  0
-60 -62  0
-60 -63  0
-60 -64  0
-60 -65  0
-60 -66  0
-60 -67  0
-60 -68  0
-61 -62  0
-61 -63  0
-61 -64  0
-61 -65  0
-61 -66  0
-61 -67  0
-61 -68  0
-62 -63  0
-62 -64  0
-62 -65  0
-62 -66  0
-62 -67  0
-62 -68  0
-63 -64  0
-63 -65  0
-63 -66  0
-63 -67  0
-63 -68  0
-64 -65  0
-64 -66  0
-64 -67  0
-64 -68  0
-65 -66  0
-65 -67  0
-65 -68  0
-66 -67  0
-66 -68  0
-67 -68  0
-71 -72  0
-71 -73  0
-71 -74  0
-71 -75  0
-71 -76  0
-71 -77  0
-71 -78  0
-71 -79  0
-71 -80  0
-71 -81  0
-71 -82  0
-72 -73  0
-72 -74  0
-72 -75  0
-72 -76  0
-72 -77  0
-72 -78  0
-72 -79  0
-72 -80  0
-72 -81  0
-72 -82  0
-73 -74  0
-73 -75  0
-73 -76  0
-73 -77  0
-73 -78  0
-73 -79  0
-73 -80  0
-73 -81  0
-73 -82  0
-74 -75  0
-74 -76  0
-74 -77  0
-74 -78  0
-74 -79  0
-74 -80  0
-74 -81  0
-74 -82  0
-75 -76  0
-75 -77  0
-75 -78  0
-75 -79  0
-75 -80  0
-75 -81  0
-75 -82  0
-76 -77  0
-76 -78  0
-76 -79  0
-76 -80  0
-76 -81  0
-76 -82  0
-77 -78  0
-77 -79  0
-77 -80  0
-77 -81  0
-77 -82  0
-78 -79  0
-78 -80  0
-78 -81  0
-78 -82  0
-79 -80  0
-79 -81  0
-79 -82  0
-80 -81  0
-80 -82  0
-81 -82  0
-85 -86  0
-85 -87  0
-85 -88  0
-85 -89  0
-85 -90  0
-85 -91  0
-85 -92  0
-85 -93  0
-85 -94  0
-85 -95  0
-85 -96  0
-86 -87  0
-86 -88  0
-86 -89  0
-86 -90  0
-86 -91  0
-86 -92  0
-86 -93  0
-86 -94  0
-86 -95  0
-86 -96  0
-87 -88  0
-87 -89  0
-87 -90  0
-87 -91  0
-87 -92  0
-87 -93  0
-87 -94  0
-87 -95  0
-87 -96  0
-88 -89  0
-88 -90  0
-88 -91  0
-88 -92  0
-88 -93  0
-88 -94  0
-88 -95  0
-88 -96  0
-89 -90  0
-89 -91  0
-89 -92  0
-89 -93  0
-89 -94  0
-89 -95  0
-89 -96  0
-90 -91  0
-90 -92  0
-90 -93  0
-90 -94  0
-90 -95  0
-90 -96  0
-91 -92  0
-91 -93  0
-91 -94  0
-91 -95  0
-91 -96  0
-92 -93  0
-92 -94  0
-92 -95  0
-92 -96  0
-93 -94  0
-93 -95  0
-93 -96  0
-94 -95  0
-94 -96  0
-95 -96  0
-99 -100  0
-99 -101  0
-99 -102  0
-99 -103  0
-99 -104  0
-99 -105  0
-99 -106  0
-99 -107  0
-99 -108  0
-99 -109  0
-99 -110  0
-100 -101  0
-100 -102  0
-100 -103  0
-100 -104  0
-100 -105  0
-100 -106  0
-100 -107  0
-100 -108  0
-100 -109  0
-100 -110  0
-101 -102  0
-101 -103  0
-101 -104  0
-101 -105  0
-101 -106  0
-101 -107  0
-101 -108  0
-101 -109  0
-101 -110  0
-102 -103  0
-102 -104  0
-102 -105  0
-102 -106  0
-102 -107  0
-102 -108  0
-102 -109  0
-102 -110  0
-103 -104  0
-103 -105  0
-103 -106  0
-103 -107  0
-103 -108  0
-103 -109  0
-103 -110  0
-104 -105  0
-104 -106  0
-104 -107  0
-104 -108  0
-104 -109  0
-104 -110  0
-105 -106  0
-105 -107  0
-105 -108  0
-105 -109  0
-105 -110  0
-106 -107  0
-106 -108  0
-106 -109  0
-106 -110  0
-107 -108  0
-107 -109  0
-107 -110  0
-108 -109  0
-108 -110  0
-109 -110  0
-113 -114  0
-113 -115  0
-113 -116  0
-113 -117  0
-113 -118  0
-113 -119  0
-113 -120  0
-113 -121  0
-113 -122  0
-113 -123  0
-113 -124  0
-114 -115  0
-114 -116  0
-114 -117  0
-114 -118  0
-114 -119  0
-114 -120  0
-114 -121  0
-114 -122  0
-114 -123  0
-114 -124  0
-115 -116  0
-115 -117  0
-115 -118  0
-115 -119  0
-115 -120  0
-115 -121  0
-115 -122  0
-115 -123  0
-115 -124  0
-116 -117  0
-116 -118  0
-116 -119  0
-116 -120  0
-116 -121  0
-116 -122  0
-116 -123  0
-116 -124  0
-117 -118  0
-117 -119  0
-117 -120  0
-117 -121  0
-117 -122  0
-117 -123  0
-117 -124  0
-118 -119  0
-118 -120  0
-118 -121  0
-118 -122  0
-118 -123  0
-118 -124  0
-119 -120  0
-119 -121  0
-119 -122  0
-119 -123  0
-119 -124  0
-120 -121  0
-120 -122  0
-120 -123  0
-120 -124  0
-121 -122  0
-121 -123  0
-121 -124  0
-122 -123  0
-122 -124  0
-123 -124  0
-127 -128  0
-127 -129  0
-127 -130  0
-127 -131  0
-127 -132  0
-127 -133  0
-127 -134  0
-127 -135  0
-127 -136  0
-127 -137  0
-127 -138  0
-128 -129  0
-128 -130  0
-128 -131  0
-128 -132  0
-128 -133  0
-128 -134  0
-128 -135  0
-128 -136  0
-128 -137  0
-128 -138  0
-129 -130  0
-129 -131  0
-129 -132  0
-129 -133  0
-129 -134  0
-129 -135  0
-129 -136  0
-129 -137  0
-129 -138  0
-130 -131  0
-130 -132  0
-130 -133  0
-130 -134  0
-130 -135  0
-130 -136  0
-130 -137  0
-130 -138  0
-131 -132  0
-131 -133  0
-131 -134  0
-131 -135  0
-131 -136  0
-131 -137  0
-131 -138  0
-132 -133  0
-132 -134  0
-132 -135  0
-132 -136  0
-132 -137  0
-132 -138  0
-133 -134  0
-133 -135  0
-133 -136  0
-133 -137  0
-133 -138  0
-134 -135  0
-134 -136  0
-134 -137  0
-134 -138  0
-135 -136  0
-135 -137  0
-135 -138  0
-136 -137  0
-136 -138  0
-137 -138  0
-141 -142  0
-141 -143  0
-141 -144  0
-141 -145  0
-141 -146  0
-141 -147  0
-141 -148  0
-141 -149  0
-141 -150  0
-141 -151  0
-141 -152  0
-142 -143  0
-142 -144  0
-142 -145  0
-142 -146  0
-142 -147  0
-142 -148  0
-142 -149  0
-142 -150  0
-142 -151  0
-142 -152  0
-143 -144  0
-143 -145  0
-143 -146  0
-143 -147  0
-143 -148  0
-143 -149  0
-143 -150  0
-143 -151  0
-143 -152  0
-144 -145  0
-144 -146  0
-144 -147  0
-144 -148  0
-144 -149  0
-144 -150  0
-144 -151  0
-144 -152  0
-145 -146  0
-145 -147  0
-145 -148  0
-145 -149  0
-145 -150  0
-145 -151  0
-145 -152  0
-146 -147  0
-146 -148  0
-146 -149  0
-146 -150  0
-146 -151  0
-146 -152  0
-147 -148  0
-147 -149  0
-147 -150  0
-147 -151  0
-147 -152  0
-148 -149  0
-148 -150  0
-148 -151  0
-148 -152  0
-149 -150  0
-149 -151  0
-149 -152  0
-150 -151  0
-150 -152  0
-151 -152  0
-155 -156  0
-155 -157  0
-155 -158  0
-155 -159  0
-155 -160  0
-155 -161  0
-155 -162  0
-155 -163  0
-155 -164  0
-155 -165  0
-155 -166  0
-156 -157  0
-156 -158  0
-156 -159  0
-156 -160  0
-156 -161  0
-156 -162  0
-156 -163  0
-156 -164  0
-156 -165  0
-156 -166  0
-157 -158  0
-157 -159  0
-157 -160  0
-157 -161  0
-157 -162  0
-157 -163  0
-157 -164  0
-157 -165  0
-157 -166  0
-158 -159  0
-158 -160  0
-158 -161  0
-158 -162  0
-158 -163  0
-158 -164  0
-158 -165  0
-158 -166  0
-159 -160  0
-159 -161  0
-159 -162  0
-159 -163  0
-159 -164  0
-159 -165  0
-159 -166  0
-160 -161  0
-160 -162  0
-160 -163  0
-160 -164  0
-160 -165  0
-160 -166  0
-161 -162  0
-161 -163  0
-161 -164  0
-161 -165  0
-161 -166  0
-162 -163  0
-162 -164  0
-162 -165  0
-162 -166  0
-163 -164  0
-163 -165  0
-163 -166  0
-164 -165  0
-164 -166  0
-165 -166  0
-169 -170  0
-169 -171  0
-169 -172  0
-169 -173  0
-169 -174  0
-169 -175  0
-169 -176  0
-169 -177  0
-169 -178  0
-169 -179  0
-169 -180  0
-170 -171  0
-170 -172  0
-170 -173  0
-170 -174  0
-170 -175  0
-170 -176  0
-170 -177  0
-170 -178  0
-170 -179  0
-170 -180  0
-171 -172  0
-171 -173  0
-171 -174  0
-171 -175  0
-171 -176  0
-171 -177  0
-171 -178  0
-171 -179  0
-171 -180  0
-172 -173  0
-172 -174  0
-172 -175  0
-172 -176  0
-172 -177  0
-172 -178  0
-172 -179  0
-172 -180  0
-173 -174  0
-173 -175  0
-173 -176  0
-173 -177  0
-173 -178  0
-173 -179  0
-173 -180  0
-174 -175  0
-174 -176  0
-174 -177  0
-174 -178  0
-174 -179  0
-174 -180  0
-175 -176  0
-175 -177  0
-175 -178  0
-175 -179  0
-175 -180  0
-176 -177  0
-176 -178  0
-176 -179  0
-176 -180  0
-177 -178  0
-177 -179  0
-177 -180  0
-178 -179  0
-178 -180  0
-179 -180  0
-26 -15  0
-15 -16  0
-16 -17  0
-17 -18  0
-18 -19  0
-19 -20  0
-20 -21  0
-21 -22  0
-22 -23  0
-23 -24  0
-24 -25  0
-25 -26  0
-26 -43  0
-15 -44  0
-16 -45  0
-17 -46  0
-18 -47  0
-19 -48  0
-20 -49  0
-21 -50  0
-22 -51  0
-23 -52  0
-24 -53  0
-25 -54  0
-26 -57  0
-15 -58  0
-16 -59  0
-17 -60  0
-18 -61  0
-19 -62  0
-20 -63  0
-21 -64  0
-22 -65  0
-23 -66  0
-24 -67  0
-25 -68  0
-26 -71  0
-15 -72  0
-16 -73  0
-17 -74  0
-18 -75  0
-19 -76  0
-20 -77  0
-21 -78  0
-22 -79  0
-23 -80  0
-24 -81  0
-25 -82  0
-26 -85  0
-15 -86  0
-16 -87  0
-17 -88  0
-18 -89  0
-19 -90  0
-20 -91  0
-21 -92  0
-22 -93  0
-23 -94  0
-24 -95  0
-25 -96  0
-26 -127  0
-15 -128  0
-16 -129  0
-17 -130  0
-18 -131  0
-19 -132  0
-20 -133  0
-21 -134  0
-22 -135  0
-23 -136  0
-24 -137  0
-25 -138  0
-40 -29  0
-29 -30  0
-30 -31  0
-31 -32  0
-32 -33  0
-33 -34  0
-34 -35  0
-35 -36  0
-36 -37  0
-37 -38  0
-38 -39  0
-39 -40  0
-40 -43  0
-29 -44  0
-30 -45  0
-31 -46  0
-32 -47  0
-33 -48  0
-34 -49  0
-35 -50  0
-36 -51  0
-37 -52  0
-38 -53  0
-39 -54  0
-40 -57  0
-29 -58  0
-30 -59  0
-31 -60  0
-32 -61  0
-33 -62  0
-34 -63  0
-35 -64  0
-36 -65  0
-37 -66  0
-38 -67  0
-39 -68  0
-40 -71  0
-29 -72  0
-30 -73  0
-31 -74  0
-32 -75  0
-33 -76  0
-34 -77  0
-35 -78  0
-36 -79  0
-37 -80  0
-38 -81  0
-39 -82  0
-40 -85  0
-29 -86  0
-30 -87  0
-31 -88  0
-32 -89  0
-33 -90  0
-34 -91  0
-35 -92  0
-36 -93  0
-37 -94  0
-38 -95  0
-39 -96  0
-40 -127  0
-29 -128  0
-30 -129  0
-31 -130  0
-32 -131  0
-33 -132  0
-34 -133  0
-35 -134  0
-36 -135  0
-37 -136  0
-38 -137  0
-39 -138  0
-54 -15  0
-43 -16  0
-44 -17  0
-45 -18  0
-46 -19  0
-47 -20  0
-48 -21  0
-49 -22  0
-50 -23  0
-51 -24  0
-52 -25  0
-53 -26  0
-54 -29  0
-43 -30  0
-44 -31  0
-45 -32  0
-46 -33  0
-47 -34  0
-48 -35  0
-49 -36  0
-50 -37  0
-51 -38  0
-52 -39  0
-53 -40  0
-54 -43  0
-43 -44  0
-44 -45  0
-45 -46  0
-46 -47  0
-47 -48  0
-48 -49  0
-49 -50  0
-50 -51  0
-51 -52  0
-52 -53  0
-53 -54  0
-54 -71  0
-43 -72  0
-44 -73  0
-45 -74  0
-46 -75  0
-47 -76  0
-48 -77  0
-49 -78  0
-50 -79  0
-51 -80  0
-52 -81  0
-53 -82  0
-54 -85  0
-43 -86  0
-44 -87  0
-45 -88  0
-46 -89  0
-47 -90  0
-48 -91  0
-49 -92  0
-50 -93  0
-51 -94  0
-52 -95  0
-53 -96  0
-54 -113  0
-43 -114  0
-44 -115  0
-45 -116  0
-46 -117  0
-47 -118  0
-48 -119  0
-49 -120  0
-50 -121  0
-51 -122  0
-52 -123  0
-53 -124  0
-68 -15  0
-57 -16  0
-58 -17  0
-59 -18  0
-60 -19  0
-61 -20  0
-62 -21  0
-63 -22  0
-64 -23  0
-65 -24  0
-66 -25  0
-67 -26  0
-68 -29  0
-57 -30  0
-58 -31  0
-59 -32  0
-60 -33  0
-61 -34  0
-62 -35  0
-63 -36  0
-64 -37  0
-65 -38  0
-66 -39  0
-67 -40  0
-68 -57  0
-57 -58  0
-58 -59  0
-59 -60  0
-60 -61  0
-61 -62  0
-62 -63  0
-63 -64  0
-64 -65  0
-65 -66  0
-66 -67  0
-67 -68  0
-68 -71  0
-57 -72  0
-58 -73  0
-59 -74  0
-60 -75  0
-61 -76  0
-62 -77  0
-63 -78  0
-64 -79  0
-65 -80  0
-66 -81  0
-67 -82  0
-68 -85  0
-57 -86  0
-58 -87  0
-59 -88  0
-60 -89  0
-61 -90  0
-62 -91  0
-63 -92  0
-64 -93  0
-65 -94  0
-66 -95  0
-67 -96  0
-68 -113  0
-57 -114  0
-58 -115  0
-59 -116  0
-60 -117  0
-61 -118  0
-62 -119  0
-63 -120  0
-64 -121  0
-65 -122  0
-66 -123  0
-67 -124  0
-82 -15  0
-71 -16  0
-72 -17  0
-73 -18  0
-74 -19  0
-75 -20  0
-76 -21  0
-77 -22  0
-78 -23  0
-79 -24  0
-80 -25  0
-81 -26  0
-82 -29  0
-71 -30  0
-72 -31  0
-73 -32  0
-74 -33  0
-75 -34  0
-76 -35  0
-77 -36  0
-78 -37  0
-79 -38  0
-80 -39  0
-81 -40  0
-82 -43  0
-71 -44  0
-72 -45  0
-73 -46  0
-74 -47  0
-75 -48  0
-76 -49  0
-77 -50  0
-78 -51  0
-79 -52  0
-80 -53  0
-81 -54  0
-82 -57  0
-71 -58  0
-72 -59  0
-73 -60  0
-74 -61  0
-75 -62  0
-76 -63  0
-77 -64  0
-78 -65  0
-79 -66  0
-80 -67  0
-81 -68  0
-82 -71  0
-71 -72  0
-72 -73  0
-73 -74  0
-74 -75  0
-75 -76  0
-76 -77  0
-77 -78  0
-78 -79  0
-79 -80  0
-80 -81  0
-81 -82  0
-82 -99  0
-71 -100  0
-72 -101  0
-73 -102  0
-74 -103  0
-75 -104  0
-76 -105  0
-77 -106  0
-78 -107  0
-79 -108  0
-80 -109  0
-81 -110  0
-96 -15  0
-85 -16  0
-86 -17  0
-87 -18  0
-88 -19  0
-89 -20  0
-90 -21  0
-91 -22  0
-92 -23  0
-93 -24  0
-94 -25  0
-95 -26  0
-96 -29  0
-85 -30  0
-86 -31  0
-87 -32  0
-88 -33  0
-89 -34  0
-90 -35  0
-91 -36  0
-92 -37  0
-93 -38  0
-94 -39  0
-95 -40  0
-96 -43  0
-85 -44  0
-86 -45  0
-87 -46  0
-88 -47  0
-89 -48  0
-90 -49  0
-91 -50  0
-92 -51  0
-93 -52  0
-94 -53  0
-95 -54  0
-96 -57  0
-85 -58  0
-86 -59  0
-87 -60  0
-88 -61  0
-89 -62  0
-90 -63  0
-91 -64  0
-92 -65  0
-93 -66  0
-94 -67  0
-95 -68  0
-96 -85  0
-85 -86  0
-86 -87  0
-87 -88  0
-88 -89  0
-89 -90  0
-90 -91  0
-91 -92  0
-92 -93  0
-93 -94  0
-94 -95  0
-95 -96  0
-96 -99  0
-85 -100  0
-86 -101  0
-87 -102  0
-88 -103  0
-89 -104  0
-90 -105  0
-91 -106  0
-92 -107  0
-93 -108  0
-94 -109  0
-95 -110  0
-110 -71  0
-99 -72  0
-100 -73  0
-101 -74  0
-102 -75  0
-103 -76  0
-104 -77  0
-105 -78  0
-106 -79  0
-107 -80  0
-108 -81  0
-109 -82  0
-110 -85  0
-99 -86  0
-100 -87  0
-101 -88  0
-102 -89  0
-103 -90  0
-104 -91  0
-105 -92  0
-106 -93  0
-107 -94  0
-108 -95  0
-109 -96  0
-110 -99  0
-99 -100  0
-100 -101  0
-101 -102  0
-102 -103  0
-103 -104  0
-104 -105  0
-105 -106  0
-106 -107  0
-107 -108  0
-108 -109  0
-109 -110  0
-110 -141  0
-99 -142  0
-100 -143  0
-101 -144  0
-102 -145  0
-103 -146  0
-104 -147  0
-105 -148  0
-106 -149  0
-107 -150  0
-108 -151  0
-109 -152  0
-110 -155  0
-99 -156  0
-100 -157  0
-101 -158  0
-102 -159  0
-103 -160  0
-104 -161  0
-105 -162  0
-106 -163  0
-107 -164  0
-108 -165  0
-109 -166  0
-124 -43  0
-113 -44  0
-114 -45  0
-115 -46  0
-116 -47  0
-117 -48  0
-118 -49  0
-119 -50  0
-120 -51  0
-121 -52  0
-122 -53  0
-123 -54  0
-124 -57  0
-113 -58  0
-114 -59  0
-115 -60  0
-116 -61  0
-117 -62  0
-118 -63  0
-119 -64  0
-120 -65  0
-121 -66  0
-122 -67  0
-123 -68  0
-124 -113  0
-113 -114  0
-114 -115  0
-115 -116  0
-116 -117  0
-117 -118  0
-118 -119  0
-119 -120  0
-120 -121  0
-121 -122  0
-122 -123  0
-123 -124  0
-124 -141  0
-113 -142  0
-114 -143  0
-115 -144  0
-116 -145  0
-117 -146  0
-118 -147  0
-119 -148  0
-120 -149  0
-121 -150  0
-122 -151  0
-123 -152  0
-124 -155  0
-113 -156  0
-114 -157  0
-115 -158  0
-116 -159  0
-117 -160  0
-118 -161  0
-119 -162  0
-120 -163  0
-121 -164  0
-122 -165  0
-123 -166  0
-138 -15  0
-127 -16  0
-128 -17  0
-129 -18  0
-130 -19  0
-131 -20  0
-132 -21  0
-133 -22  0
-134 -23  0
-135 -24  0
-136 -25  0
-137 -26  0
-138 -29  0
-127 -30  0
-128 -31  0
-129 -32  0
-130 -33  0
-131 -34  0
-132 -35  0
-133 -36  0
-134 -37  0
-135 -38  0
-136 -39  0
-137 -40  0
-138 -127  0
-127 -128  0
-128 -129  0
-129 -130  0
-130 -131  0
-131 -132  0
-132 -133  0
-133 -134  0
-134 -135  0
-135 -136  0
-136 -137  0
-137 -138  0
-138 -141  0
-127 -142  0
-128 -143  0
-129 -144  0
-130 -145  0
-131 -146  0
-132 -147  0
-133 -148  0
-134 -149  0
-135 -150  0
-136 -151  0
-137 -152  0
-138 -155  0
-127 -156  0
-128 -157  0
-129 -158  0
-130 -159  0
-131 -160  0
-132 -161  0
-133 -162  0
-134 -163  0
-135 -164  0
-136 -165  0
-137 -166  0
-152 -99  0
-141 -100  0
-142 -101  0
-143 -102  0
-144 -103  0
-145 -104  0
-146 -105  0
-147 -106  0
-148 -107  0
-149 -108  0
-150 -109  0
-151 -110  0
-152 -113  0
-141 -114  0
-142 -115  0
-143 -116  0
-144 -117  0
-145 -118  0
-146 -119  0
-147 -120  0
-148 -121  0
-149 -122  0
-150 -123  0
-151 -124  0
-152 -127  0
-141 -128  0
-142 -129  0
-143 -130  0
-144 -131  0
-145 -132  0
-146 -133  0
-147 -134  0
-148 -135  0
-149 -136  0
-150 -137  0
-151 -138  0
-152 -141  0
-141 -142  0
-142 -143  0
-143 -144  0
-144 -145  0
-145 -146  0
-146 -147  0
-147 -148  0
-148 -149  0
-149 -150  0
-150 -151  0
-151 -152  0
-166 -99  0
-155 -100  0
-156 -101  0
-157 -102  0
-158 -103  0
-159 -104  0
-160 -105  0
-161 -106  0
-162 -107  0
-163 -108  0
-164 -109  0
-165 -110  0
-166 -113  0
-155 -114  0
-156 -115  0
-157 -116  0
-158 -117  0
-159 -118  0
-160 -119  0
-161 -120  0
-162 -121  0
-163 -122  0
-164 -123  0
-165 -124  0
-166 -127  0
-155 -128  0
-156 -129  0
-157 -130  0
-158 -131  0
-159 -132  0
-160 -133  0
-161 -134  0
-162 -135  0
-163 -136  0
-164 -137  0
-165 -138  0
-166 -155  0
-155 -156  0
-156 -157  0
-157 -158  0
-158 -159  0
-159 -160  0
-160 -161  0
-161 -162  0
-162 -163  0
-163 -164  0
-164 -165  0
-165 -166  0
-180 -169  0
-169 -170  0
-170 -171  0
-171 -172  0
-172 -173  0
-173 -174  0
-174 -175  0
-175 -176  0
-176 -177  0
-177 -178  0
-178 -179  0
-179 -180  0
